c WMC file for PBN EPFL/random_control/i2c_distill_EPFL/random_control/i2c_miter written by probABC
p cnf 446 843
166 10 12 0
-166 -10 0
-166 -12 0
167 6 23 0
-167 -6 0
-167 -23 0
168 57 167 0
-168 -57 0
-168 -167 0
169 9 22 0
-169 -9 0
-169 -22 0
170 8 -169 0
-170 -8 0
-170 169 0
171 14 -170 0
-171 -14 0
-171 170 0
172 15 -171 0
-172 -15 0
-172 171 0
173 -11 172 0
-173 11 0
-173 -172 0
174 -15 171 0
-174 15 0
-174 -171 0
175 -8 169 0
-175 8 0
-175 -169 0
176 -9 -22 0
-176 9 0
-176 22 0
177 14 176 0
-177 -14 0
-177 -176 0
178 170 177 0
-178 -170 0
-178 -177 0
179 175 178 0
-179 -175 0
-179 -178 0
180 172 -179 0
-180 -172 0
-180 179 0
181 174 -180 0
-181 -174 0
-181 180 0
182 11 181 0
-182 -11 0
-182 -181 0
183 5 20 0
-183 -5 0
-183 -20 0
184 17 19 0
-184 -17 0
-184 -19 0
185 -183 -184 0
-185 183 0
-185 184 0
186 7 13 0
-186 -7 0
-186 -13 0
187 18 -186 0
-187 -18 0
-187 186 0
188 -167 -187 0
-188 167 0
-188 187 0
189 -185 -188 0
-189 185 0
-189 188 0
190 173 -189 0
-190 -173 0
-190 189 0
191 182 -190 0
-191 -182 0
-191 190 0
192 168 191 0
-192 -168 0
-192 -191 0
193 -166 192 0
-193 166 0
-193 -192 0
194 57 166 0
-194 -57 0
-194 -166 0
195 -167 -194 0
-195 167 0
-195 194 0
196 148 -195 0
-196 -148 0
-196 195 0
197 4 130 0
-197 -4 0
-197 -130 0
198 148 195 0
-198 -148 0
-198 -195 0
199 1 -166 0
-199 -1 0
-199 166 0
200 -172 -199 0
-200 172 0
-200 199 0
201 -189 -200 0
-201 189 0
-201 200 0
202 -55 -197 0
-202 55 0
-202 197 0
203 196 -202 0
-203 -196 0
-203 202 0
204 198 -203 0
-204 -198 0
-204 203 0
205 201 -204 0
-205 -201 0
-205 204 0
206 193 -205 0
-206 -193 0
-206 205 0
207 -123 -128 0
-207 123 0
-207 128 0
208 44 48 0
-208 -44 0
-208 -48 0
209 49 -208 0
-209 -49 0
-209 208 0
210 -157 -209 0
-210 157 0
-210 209 0
211 42 47 0
-211 -42 0
-211 -47 0
212 51 -211 0
-212 -51 0
-212 211 0
213 43 45 0
-213 -43 0
-213 -45 0
214 39 41 0
-214 -39 0
-214 -41 0
215 -83 130 0
-215 83 0
-215 -130 0
216 -214 -215 0
-216 214 0
-216 215 0
217 -207 -213 0
-217 207 0
-217 213 0
218 -216 -217 0
-218 216 0
-218 217 0
219 -212 -218 0
-219 212 0
-219 218 0
220 -210 -219 0
-220 210 0
-220 219 0
221 3 16 0
-221 -3 0
-221 -16 0
222 21 25 0
-222 -21 0
-222 -25 0
223 46 50 0
-223 -46 0
-223 -50 0
224 -222 -223 0
-224 222 0
-224 223 0
225 -221 -224 0
-225 221 0
-225 224 0
226 -83 225 0
-226 83 0
-226 -225 0
227 -207 226 0
-227 207 0
-227 -226 0
228 43 -214 0
-228 -43 0
-228 214 0
229 45 -228 0
-229 -45 0
-229 228 0
230 -208 -212 0
-230 208 0
-230 212 0
231 -229 -230 0
-231 229 0
-231 230 0
232 -83 231 0
-232 83 0
-232 -231 0
233 227 232 0
-233 -227 0
-233 -232 0
234 49 233 0
-234 -49 0
-234 -233 0
235 157 225 0
-235 -157 0
-235 -225 0
236 -157 -225 0
-236 157 0
-236 225 0
237 235 236 0
-237 -235 0
-237 -236 0
238 -83 237 0
-238 83 0
-238 -237 0
239 -207 238 0
-239 207 0
-239 -238 0
240 232 239 0
-240 -232 0
-240 -239 0
241 49 240 0
-241 -49 0
-241 -240 0
242 45 -49 0
-242 -45 0
-242 49 0
243 -83 -242 0
-243 83 0
-243 242 0
244 -228 -243 0
-244 228 0
-244 243 0
245 -230 -244 0
-245 230 0
-245 244 0
246 -225 -231 0
-246 225 0
-246 231 0
247 -83 246 0
-247 83 0
-247 -246 0
248 -63 207 0
-248 63 0
-248 -207 0
249 247 -248 0
-249 -247 0
-249 248 0
250 130 245 0
-250 -130 0
-250 -245 0
251 249 -250 0
-251 -249 0
-251 250 0
252 -234 -251 0
-252 234 0
-252 251 0
253 241 -252 0
-253 -241 0
-253 252 0
254 -100 -137 0
-254 100 0
-254 137 0
255 138 -254 0
-255 -138 0
-255 254 0
256 -139 -163 0
-256 139 0
-256 163 0
257 255 -256 0
-257 -255 0
-257 256 0
258 138 139 0
-258 -138 0
-258 -139 0
259 -162 -258 0
-259 162 0
-259 258 0
260 6 7 0
-260 -6 0
-260 -7 0
261 8 14 0
-261 -8 0
-261 -14 0
262 -260 -261 0
-262 260 0
-262 261 0
263 10 11 0
-263 -10 0
-263 -11 0
264 15 23 0
-264 -15 0
-264 -23 0
265 -263 -264 0
-265 263 0
-265 264 0
266 -262 -265 0
-266 262 0
-266 265 0
267 4 12 0
-267 -4 0
-267 -12 0
268 13 18 0
-268 -13 0
-268 -18 0
269 19 -151 0
-269 -19 0
-269 151 0
270 -268 -269 0
-270 268 0
-270 269 0
271 -169 -267 0
-271 169 0
-271 267 0
272 -183 -271 0
-272 183 0
-272 271 0
273 -270 -272 0
-273 270 0
-273 272 0
274 -1 114 0
-274 1 0
-274 -114 0
275 124 -274 0
-275 -124 0
-275 274 0
276 22 62 0
-276 -22 0
-276 -62 0
277 119 -149 0
-277 -119 0
-277 149 0
278 -276 -277 0
-278 276 0
-278 277 0
279 -185 -278 0
-279 185 0
-279 278 0
280 275 -279 0
-280 -275 0
-280 279 0
281 273 280 0
-281 -273 0
-281 -280 0
282 -266 281 0
-282 266 0
-282 -281 0
283 37 110 0
-283 -37 0
-283 -110 0
284 36 -110 0
-284 -36 0
-284 110 0
285 107 283 0
-285 -107 0
-285 -283 0
286 284 -285 0
-286 -284 0
-286 285 0
287 -156 -286 0
-287 156 0
-287 286 0
288 -99 -107 0
-288 99 0
-288 107 0
289 -156 288 0
-289 156 0
-289 -288 0
290 286 -289 0
-290 -286 0
-290 289 0
291 -132 -133 0
-291 132 0
-291 133 0
292 -134 -291 0
-292 134 0
-292 291 0
293 -83 137 0
-293 83 0
-293 -137 0
294 138 -139 0
-294 -138 0
-294 139 0
295 -293 -294 0
-295 293 0
-295 294 0
296 -292 -295 0
-296 292 0
-296 295 0
297 -146 -296 0
-297 146 0
-297 296 0
298 -98 297 0
-298 98 0
-298 -297 0
299 -144 -296 0
-299 144 0
-299 296 0
300 -96 299 0
-300 96 0
-300 -299 0
301 -147 -296 0
-301 147 0
-301 296 0
302 -97 301 0
-302 97 0
-302 -301 0
303 -145 -296 0
-303 145 0
-303 296 0
304 -101 303 0
-304 101 0
-304 -303 0
305 298 300 0
-305 -298 0
-305 -300 0
306 302 304 0
-306 -302 0
-306 -304 0
307 -305 -306 0
-307 305 0
-307 306 0
308 4 111 0
-308 -4 0
-308 -111 0
309 292 -308 0
-309 -292 0
-309 308 0
310 -161 309 0
-310 161 0
-310 -309 0
311 307 -310 0
-311 -307 0
-311 310 0
312 160 287 0
-312 -160 0
-312 -287 0
313 290 -312 0
-313 -290 0
-313 312 0
314 282 -313 0
-314 -282 0
-314 313 0
315 311 -314 0
-315 -311 0
-315 314 0
316 130 315 0
-316 -130 0
-316 -315 0
317 234 -251 0
-317 -234 0
-317 251 0
318 -241 -317 0
-318 241 0
-318 317 0
319 41 -213 0
-319 -41 0
-319 213 0
320 39 42 0
-320 -39 0
-320 -42 0
321 47 51 0
-321 -47 0
-321 -51 0
322 -215 -321 0
-322 215 0
-322 321 0
323 -207 -320 0
-323 207 0
-323 320 0
324 -322 -323 0
-324 322 0
-324 323 0
325 -319 -324 0
-325 319 0
-325 324 0
326 -210 -325 0
-326 210 0
-326 325 0
327 -209 -237 0
-327 209 0
-327 237 0
328 -209 -225 0
-328 209 0
-328 225 0
329 -327 -328 0
-329 327 0
-329 328 0
330 327 328 0
-330 -327 0
-330 -328 0
331 39 -83 0
-331 -39 0
-331 83 0
332 130 -331 0
-332 -130 0
-332 331 0
333 -207 -332 0
-333 207 0
-333 332 0
334 -212 -319 0
-334 212 0
-334 319 0
335 -333 -334 0
-335 333 0
-335 334 0
336 329 -335 0
-336 -329 0
-336 335 0
337 330 -336 0
-337 -330 0
-337 336 0
338 -83 229 0
-338 83 0
-338 -229 0
339 -209 -211 0
-339 209 0
-339 211 0
340 -225 -339 0
-340 225 0
-340 339 0
341 -83 340 0
-341 83 0
-341 -340 0
342 -207 341 0
-342 207 0
-342 -341 0
343 338 342 0
-343 -338 0
-343 -342 0
344 51 343 0
-344 -51 0
-344 -343 0
345 -51 -83 0
-345 51 0
-345 83 0
346 -229 -345 0
-346 229 0
-346 345 0
347 -67 130 0
-347 67 0
-347 -130 0
348 -158 -347 0
-348 158 0
-348 347 0
349 346 -348 0
-349 -346 0
-349 348 0
350 344 -349 0
-350 -344 0
-350 349 0
351 -20 55 0
-351 20 0
-351 -55 0
352 12 13 0
-352 -12 0
-352 -13 0
353 -18 -152 0
-353 18 0
-353 152 0
354 -352 -353 0
-354 352 0
-354 353 0
355 351 -354 0
-355 -351 0
-355 354 0
356 -266 -355 0
-356 266 0
-356 355 0
357 18 -55 0
-357 -18 0
-357 55 0
358 -150 -357 0
-358 150 0
-358 357 0
359 -185 -352 0
-359 185 0
-359 352 0
360 -262 -358 0
-360 262 0
-360 358 0
361 -359 -360 0
-361 359 0
-361 360 0
362 356 361 0
-362 -356 0
-362 -361 0
363 -169 -197 0
-363 169 0
-363 197 0
364 362 -363 0
-364 -362 0
-364 363 0
365 40 52 0
-365 -40 0
-365 -52 0
366 53 -365 0
-366 -53 0
-366 365 0
367 -27 -117 0
-367 27 0
-367 117 0
368 -366 -367 0
-368 366 0
-368 367 0
369 27 -96 0
-369 -27 0
-369 96 0
370 97 101 0
-370 -97 0
-370 -101 0
371 111 -370 0
-371 -111 0
-371 370 0
372 -369 -371 0
-372 369 0
-372 371 0
373 368 372 0
-373 -368 0
-373 -372 0
374 28 373 0
-374 -28 0
-374 -373 0
375 27 366 0
-375 -27 0
-375 -366 0
376 28 -366 0
-376 -28 0
-376 366 0
377 375 376 0
-377 -375 0
-377 -376 0
378 96 98 0
-378 -96 0
-378 -98 0
379 101 -378 0
-379 -101 0
-379 378 0
380 111 379 0
-380 -111 0
-380 -379 0
381 377 380 0
-381 -377 0
-381 -380 0
382 27 28 0
-382 -27 0
-382 -28 0
383 -27 -28 0
-383 27 0
-383 28 0
384 117 382 0
-384 -117 0
-384 -382 0
385 383 -384 0
-385 -383 0
-385 384 0
386 381 385 0
-386 -381 0
-386 -385 0
387 -29 386 0
-387 29 0
-387 -386 0
388 -28 -117 0
-388 28 0
-388 117 0
389 -375 -388 0
-389 375 0
-389 388 0
390 387 389 0
-390 -387 0
-390 -389 0
391 374 -390 0
-391 -374 0
-391 390 0
392 86 391 0
-392 -86 0
-392 -391 0
393 29 117 0
-393 -29 0
-393 -117 0
394 -101 -117 0
-394 101 0
-394 117 0
395 -86 -382 0
-395 86 0
-395 382 0
396 393 394 0
-396 -393 0
-396 -394 0
397 -395 -396 0
-397 395 0
-397 396 0
398 392 397 0
-398 -392 0
-398 -397 0
399 54 398 0
-399 -54 0
-399 -398 0
400 28 -29 0
-400 -28 0
-400 29 0
401 86 117 0
-401 -86 0
-401 -117 0
402 -400 -401 0
-402 400 0
-402 401 0
403 27 -54 0
-403 -27 0
-403 54 0
404 -402 -403 0
-404 402 0
-404 403 0
405 399 404 0
-405 -399 0
-405 -404 0
406 59 405 0
-406 -59 0
-406 -405 0
407 27 54 0
-407 -27 0
-407 -54 0
408 -59 -407 0
-408 59 0
-408 407 0
409 -402 -408 0
-409 402 0
-409 408 0
410 406 409 0
-410 -406 0
-410 -409 0
411 153 -372 0
-411 -153 0
-411 372 0
412 -153 372 0
-412 153 0
-412 -372 0
413 368 411 0
-413 -368 0
-413 -411 0
414 412 -413 0
-414 -412 0
-414 413 0
415 28 414 0
-415 -28 0
-415 -414 0
416 -390 415 0
-416 390 0
-416 -415 0
417 86 416 0
-417 -86 0
-417 -416 0
418 154 -417 0
-418 -154 0
-418 417 0
419 -154 417 0
-419 154 0
-419 -417 0
420 397 418 0
-420 -397 0
-420 -418 0
421 419 -420 0
-421 -419 0
-421 420 0
422 54 421 0
-422 -54 0
-422 -421 0
423 404 422 0
-423 -404 0
-423 -422 0
424 59 423 0
-424 -59 0
-424 -423 0
425 409 424 0
-425 -409 0
-425 -424 0
426 -155 425 0
-426 155 0
-426 -425 0
427 155 -425 0
-427 -155 0
-427 425 0
428 426 427 0
-428 -426 0
-428 -427 0
429 -410 428 0
-429 410 0
-429 -428 0
430 410 -428 0
-430 -410 0
-430 428 0
431 -197 429 0
-431 197 0
-431 -429 0
432 430 -431 0
-432 -430 0
-432 431 0
433 159 164 0
-433 -159 0
-433 -164 0
434 259 -433 0
-434 -259 0
-434 433 0
435 257 -434 0
-435 -257 0
-435 434 0
436 220 -435 0
-436 -220 0
-436 435 0
437 326 -436 0
-437 -326 0
-437 436 0
438 364 -437 0
-438 -364 0
-438 437 0
439 337 -438 0
-439 -337 0
-439 438 0
440 350 -439 0
-440 -350 0
-440 439 0
441 253 316 0
-441 -253 0
-441 -316 0
442 318 -441 0
-442 -318 0
-442 441 0
443 206 -440 0
-443 -206 0
-443 440 0
444 -442 -443 0
-444 442 0
-444 443 0
445 432 -444 0
-445 -432 0
-445 444 0
165 445 0
-165 -445 0
165 0
w 1 0.500000
w 2 0.500000
w 3 0.500000
w 4 0.500000
w 5 0.500000
w 6 0.500000
w 7 0.500000
w 8 0.500000
w 9 0.500000
w 10 0.500000
w 11 0.500000
w 12 0.500000
w 13 0.500000
w 14 0.500000
w 15 0.500000
w 16 0.500000
w 17 0.500000
w 18 0.500000
w 19 0.500000
w 20 0.500000
w 21 0.500000
w 22 0.500000
w 23 0.500000
w 24 0.500000
w 25 0.500000
w 26 0.500000
w 27 0.500000
w 28 0.500000
w 29 0.500000
w 30 0.500000
w 31 0.500000
w 32 0.500000
w 33 0.500000
w 34 0.500000
w 35 0.500000
w 36 0.500000
w 37 0.500000
w 38 0.500000
w 39 0.500000
w 40 0.500000
w 41 0.500000
w 42 0.500000
w 43 0.500000
w 44 0.500000
w 45 0.500000
w 46 0.500000
w 47 0.500000
w 48 0.500000
w 49 0.500000
w 50 0.500000
w 51 0.500000
w 52 0.500000
w 53 0.500000
w 54 0.500000
w 55 0.500000
w 56 0.500000
w 57 0.500000
w 58 0.500000
w 59 0.500000
w 60 0.500000
w 61 0.500000
w 62 0.500000
w 63 0.500000
w 64 0.500000
w 65 0.500000
w 66 0.500000
w 67 0.500000
w 68 0.500000
w 69 0.500000
w 70 0.500000
w 71 0.500000
w 72 0.500000
w 73 0.500000
w 74 0.500000
w 75 0.500000
w 76 0.500000
w 77 0.500000
w 78 0.500000
w 79 0.500000
w 80 0.500000
w 81 0.500000
w 82 0.500000
w 83 0.500000
w 84 0.500000
w 85 0.500000
w 86 0.500000
w 87 0.500000
w 88 0.500000
w 89 0.500000
w 90 0.500000
w 91 0.500000
w 92 0.500000
w 93 0.500000
w 94 0.500000
w 95 0.500000
w 96 0.500000
w 97 0.500000
w 98 0.500000
w 99 0.500000
w 100 0.500000
w 101 0.500000
w 102 0.500000
w 103 0.500000
w 104 0.500000
w 105 0.500000
w 106 0.500000
w 107 0.500000
w 108 0.500000
w 109 0.500000
w 110 0.500000
w 111 0.500000
w 112 0.500000
w 113 0.500000
w 114 0.500000
w 115 0.500000
w 116 0.500000
w 117 0.500000
w 118 0.500000
w 119 0.500000
w 120 0.500000
w 121 0.500000
w 122 0.500000
w 123 0.500000
w 124 0.500000
w 125 0.500000
w 126 0.500000
w 127 0.500000
w 128 0.500000
w 129 0.500000
w 130 0.500000
w 131 0.500000
w 132 0.500000
w 133 0.500000
w 134 0.500000
w 135 0.500000
w 136 0.500000
w 137 0.500000
w 138 0.500000
w 139 0.500000
w 140 0.500000
w 141 0.500000
w 142 0.500000
w 143 0.500000
w 144 0.500000
w 145 0.500000
w 146 0.500000
w 147 0.500000
w 148 0.125000
w 149 0.125000
w 150 0.125000
w 151 0.125000
w 152 0.125000
w 153 0.125000
w 154 0.125000
w 155 0.125000
w 156 0.125000
w 157 0.125000
w 158 0.125000
w 159 0.125000
w 160 0.125000
w 161 0.125000
w 162 0.125000
w 163 0.125000
w 164 0.125000
w 166 -1
w 167 -1
w 168 -1
w 169 -1
w 170 -1
w 171 -1
w 172 -1
w 173 -1
w 174 -1
w 175 -1
w 176 -1
w 177 -1
w 178 -1
w 179 -1
w 180 -1
w 181 -1
w 182 -1
w 183 -1
w 184 -1
w 185 -1
w 186 -1
w 187 -1
w 188 -1
w 189 -1
w 190 -1
w 191 -1
w 192 -1
w 193 -1
w 194 -1
w 195 -1
w 196 -1
w 197 -1
w 198 -1
w 199 -1
w 200 -1
w 201 -1
w 202 -1
w 203 -1
w 204 -1
w 205 -1
w 206 -1
w 207 -1
w 208 -1
w 209 -1
w 210 -1
w 211 -1
w 212 -1
w 213 -1
w 214 -1
w 215 -1
w 216 -1
w 217 -1
w 218 -1
w 219 -1
w 220 -1
w 221 -1
w 222 -1
w 223 -1
w 224 -1
w 225 -1
w 226 -1
w 227 -1
w 228 -1
w 229 -1
w 230 -1
w 231 -1
w 232 -1
w 233 -1
w 234 -1
w 235 -1
w 236 -1
w 237 -1
w 238 -1
w 239 -1
w 240 -1
w 241 -1
w 242 -1
w 243 -1
w 244 -1
w 245 -1
w 246 -1
w 247 -1
w 248 -1
w 249 -1
w 250 -1
w 251 -1
w 252 -1
w 253 -1
w 254 -1
w 255 -1
w 256 -1
w 257 -1
w 258 -1
w 259 -1
w 260 -1
w 261 -1
w 262 -1
w 263 -1
w 264 -1
w 265 -1
w 266 -1
w 267 -1
w 268 -1
w 269 -1
w 270 -1
w 271 -1
w 272 -1
w 273 -1
w 274 -1
w 275 -1
w 276 -1
w 277 -1
w 278 -1
w 279 -1
w 280 -1
w 281 -1
w 282 -1
w 283 -1
w 284 -1
w 285 -1
w 286 -1
w 287 -1
w 288 -1
w 289 -1
w 290 -1
w 291 -1
w 292 -1
w 293 -1
w 294 -1
w 295 -1
w 296 -1
w 297 -1
w 298 -1
w 299 -1
w 300 -1
w 301 -1
w 302 -1
w 303 -1
w 304 -1
w 305 -1
w 306 -1
w 307 -1
w 308 -1
w 309 -1
w 310 -1
w 311 -1
w 312 -1
w 313 -1
w 314 -1
w 315 -1
w 316 -1
w 317 -1
w 318 -1
w 319 -1
w 320 -1
w 321 -1
w 322 -1
w 323 -1
w 324 -1
w 325 -1
w 326 -1
w 327 -1
w 328 -1
w 329 -1
w 330 -1
w 331 -1
w 332 -1
w 333 -1
w 334 -1
w 335 -1
w 336 -1
w 337 -1
w 338 -1
w 339 -1
w 340 -1
w 341 -1
w 342 -1
w 343 -1
w 344 -1
w 345 -1
w 346 -1
w 347 -1
w 348 -1
w 349 -1
w 350 -1
w 351 -1
w 352 -1
w 353 -1
w 354 -1
w 355 -1
w 356 -1
w 357 -1
w 358 -1
w 359 -1
w 360 -1
w 361 -1
w 362 -1
w 363 -1
w 364 -1
w 365 -1
w 366 -1
w 367 -1
w 368 -1
w 369 -1
w 370 -1
w 371 -1
w 372 -1
w 373 -1
w 374 -1
w 375 -1
w 376 -1
w 377 -1
w 378 -1
w 379 -1
w 380 -1
w 381 -1
w 382 -1
w 383 -1
w 384 -1
w 385 -1
w 386 -1
w 387 -1
w 388 -1
w 389 -1
w 390 -1
w 391 -1
w 392 -1
w 393 -1
w 394 -1
w 395 -1
w 396 -1
w 397 -1
w 398 -1
w 399 -1
w 400 -1
w 401 -1
w 402 -1
w 403 -1
w 404 -1
w 405 -1
w 406 -1
w 407 -1
w 408 -1
w 409 -1
w 410 -1
w 411 -1
w 412 -1
w 413 -1
w 414 -1
w 415 -1
w 416 -1
w 417 -1
w 418 -1
w 419 -1
w 420 -1
w 421 -1
w 422 -1
w 423 -1
w 424 -1
w 425 -1
w 426 -1
w 427 -1
w 428 -1
w 429 -1
w 430 -1
w 431 -1
w 432 -1
w 433 -1
w 434 -1
w 435 -1
w 436 -1
w 437 -1
w 438 -1
w 439 -1
w 440 -1
w 441 -1
w 442 -1
w 443 -1
w 444 -1
w 445 -1
w 165 -1
